(set-info :smt-lib-version 2.6)
(set-logic QF_BV)
(set-info :source |
 Patrice Godefroid, SAGE (systematic dynamic test generation)
 For more information: http://research.microsoft.com/en-us/um/people/pg/public_psfiles/ndss2008.pdf
|)
(set-info :category "industrial")
(set-info :status sat)
(declare-fun T2_62 () (_ BitVec 16))
(declare-fun T2_60 () (_ BitVec 16))
(declare-fun T2_58 () (_ BitVec 16))
(declare-fun T2_56 () (_ BitVec 16))
(declare-fun T2_54 () (_ BitVec 16))
(declare-fun T4_46 () (_ BitVec 32))
(declare-fun T4_16 () (_ BitVec 32))
(declare-fun T1_62 () (_ BitVec 8))
(declare-fun T1_63 () (_ BitVec 8))
(declare-fun T1_60 () (_ BitVec 8))
(declare-fun T1_61 () (_ BitVec 8))
(declare-fun T1_58 () (_ BitVec 8))
(declare-fun T1_59 () (_ BitVec 8))
(declare-fun T1_56 () (_ BitVec 8))
(declare-fun T1_57 () (_ BitVec 8))
(declare-fun T1_54 () (_ BitVec 8))
(declare-fun T1_55 () (_ BitVec 8))
(declare-fun T1_46 () (_ BitVec 8))
(declare-fun T1_47 () (_ BitVec 8))
(declare-fun T1_48 () (_ BitVec 8))
(declare-fun T1_49 () (_ BitVec 8))
(declare-fun T1_16 () (_ BitVec 8))
(declare-fun T1_17 () (_ BitVec 8))
(declare-fun T1_18 () (_ BitVec 8))
(declare-fun T1_19 () (_ BitVec 8))
(assert (let ((?v_12 ((_ zero_extend 16) T2_62)) (?v_0 ((_ zero_extend 16) T2_60)) (?v_6 ((_ zero_extend 16) T2_58)) (?v_4 ((_ zero_extend 16) T2_56)) (?v_2 ((_ zero_extend 16) T2_54))) (let ((?v_8 (bvadd ?v_2 (_ bv34 32)))) (let ((?v_11 (bvadd ?v_8 ?v_4))) (let ((?v_14 (bvadd ?v_11 ?v_6))) (let ((?v_16 (bvadd ?v_14 ?v_0))) (let ((?v_17 (bvadd ?v_16 ?v_12)) (?v_15 (bvsub T4_16 (_ bv30 32))) (?v_3 (bvadd ?v_2 (_ bv1503176 32)))) (let ((?v_7 (bvadd ?v_3 ?v_4))) (let ((?v_9 (bvadd ?v_7 ?v_6))) (let ((?v_13 (bvadd ?v_9 ?v_0)) (?v_10 (bvadd ?v_0 (_ bv2 32)))) (let ((?v_5 (bvsub (_ bv56 32) ?v_10))) (let ((?v_1 ((_ extract 7 0) ?v_5))) (and true (= T4_16 (bvor (bvshl (bvor (bvshl (bvor (bvshl ((_ zero_extend 24) T1_19) (_ bv8 32)) ((_ zero_extend 24) T1_18)) (_ bv8 32)) ((_ zero_extend 24) T1_17)) (_ bv8 32)) ((_ zero_extend 24) T1_16))) (= T4_46 (bvor (bvshl (bvor (bvshl (bvor (bvshl ((_ zero_extend 24) T1_49) (_ bv8 32)) ((_ zero_extend 24) T1_48)) (_ bv8 32)) ((_ zero_extend 24) T1_47)) (_ bv8 32)) ((_ zero_extend 24) T1_46))) (= T2_54 (bvor (bvshl ((_ zero_extend 8) T1_55) (_ bv8 16)) ((_ zero_extend 8) T1_54))) (= T2_56 (bvor (bvshl ((_ zero_extend 8) T1_57) (_ bv8 16)) ((_ zero_extend 8) T1_56))) (= T2_58 (bvor (bvshl ((_ zero_extend 8) T1_59) (_ bv8 16)) ((_ zero_extend 8) T1_58))) (= T2_60 (bvor (bvshl ((_ zero_extend 8) T1_61) (_ bv8 16)) ((_ zero_extend 8) T1_60))) (= T2_62 (bvor (bvshl ((_ zero_extend 8) T1_63) (_ bv8 16)) ((_ zero_extend 8) T1_62))) (not (= ?v_17 T4_46)) (= (bvand ?v_1 (_ bv128 8)) (_ bv0 8)) (not (= (bvand ?v_1 (_ bv63 8)) (_ bv0 8))) (not (= ?v_1 (_ bv4 8))) (not (= ?v_1 (_ bv5 8))) (bvult ?v_3 (_ bv3131408 32)) (bvule ?v_3 (_ bv3131408 32)) (bvule (bvadd ?v_4 ?v_3) (_ bv3131408 32)) (bvult ?v_2 (_ bv256 32)) (not (= T2_54 (_ bv0 16))) (bvult ?v_5 (_ bv63 32)) (bvult ?v_7 (_ bv3131408 32)) (bvule (bvadd ?v_6 ?v_7) (_ bv3131408 32)) (bvult ?v_4 (_ bv256 32)) (not (= T2_56 (_ bv0 16))) (bvule T2_54 T2_56) (bvule ?v_2 ?v_8) (bvult ?v_9 (_ bv3131408 32)) (bvule (bvadd ?v_0 ?v_9) (_ bv3131408 32)) (bvule (_ bv4 32) ?v_10) (bvult ?v_10 (_ bv256 32)) (bvult ?v_10 (_ bv2147483648 32)) (bvule ?v_10 (_ bv2147483647 32)) (not (= ?v_10 (_ bv0 32))) (bvule ?v_10 (_ bv4294967264 32)) (bvult ?v_6 (_ bv256 32)) (not (= T2_58 (_ bv0 16))) (bvule ?v_4 ?v_6) (bvule ?v_4 ?v_11) (bvule (_ bv30 32) T4_16) (not (= T4_16 (_ bv0 32))) (bvule (_ bv24 32) T4_16) (bvule T4_16 (_ bv2000 32)) (bvult (_ bv480 32) T4_16) (bvult (_ bv30 32) T4_16) (bvult T4_16 (_ bv10485760 32)) (bvult ?v_13 (_ bv3131408 32)) (bvule (bvadd ?v_12 ?v_13) (_ bv3131408 32)) (bvult ?v_0 (_ bv256 32)) (not (= T2_60 (_ bv0 16))) (bvule ?v_6 ?v_0) (bvule ?v_6 ?v_14) (bvule (_ bv34 32) ?v_15) (bvule (_ bv24 32) ?v_15) (bvule ?v_15 (_ bv955 32)) (not (= ?v_15 (_ bv0 32))) (bvult ?v_12 (_ bv256 32)) (not (= T2_62 (_ bv0 16))) (bvult ?v_12 ?v_0) (bvule ?v_0 ?v_16) (bvule T4_46 ?v_15) (not (= T4_46 (_ bv0 32))) (bvule ?v_12 ?v_17))))))))))))))
(check-sat)
(exit)
